Instance: E076-08s.dat
Class:  5
   75 --- number of customers (no depot)
   17 --- number of vehicles
  236 --- number of items
Capacity - height - width of vehicles
   180     40     20
Node - x - y - demand
    0    40.0    40.0     0.0
    1    22.0    22.0    18.0
    2    36.0    26.0    26.0
    3    21.0    45.0    11.0
    4    45.0    35.0    30.0
    5    55.0    20.0    21.0
    6    33.0    34.0    19.0
    7    50.0    50.0    15.0
    8    55.0    45.0    16.0
    9    26.0    59.0    29.0
   10    40.0    66.0    26.0
   11    55.0    65.0    37.0
   12    35.0    51.0    16.0
   13    62.0    35.0    12.0
   14    62.0    57.0    31.0
   15    62.0    24.0     8.0
   16    21.0    36.0    19.0
   17    33.0    44.0    20.0
   18     9.0    56.0    13.0
   19    62.0    48.0    15.0
   20    66.0    14.0    22.0
   21    44.0    13.0    28.0
   22    26.0    13.0    12.0
   23    11.0    28.0     6.0
   24     7.0    43.0    27.0
   25    17.0    64.0    14.0
   26    41.0    46.0    18.0
   27    55.0    34.0    17.0
   28    35.0    16.0    29.0
   29    52.0    26.0    13.0
   30    43.0    26.0    22.0
   31    31.0    76.0    25.0
   32    22.0    53.0    28.0
   33    26.0    29.0    27.0
   34    50.0    40.0    19.0
   35    55.0    50.0    10.0
   36    54.0    10.0    12.0
   37    60.0    15.0    14.0
   38    47.0    66.0    24.0
   39    30.0    60.0    16.0
   40    30.0    50.0    33.0
   41    12.0    17.0    15.0
   42    15.0    14.0    11.0
   43    16.0    19.0    18.0
   44    21.0    48.0    17.0
   45    50.0    30.0    21.0
   46    51.0    42.0    27.0
   47    50.0    15.0    19.0
   48    48.0    21.0    20.0
   49    12.0    38.0     5.0
   50    15.0    56.0    22.0
   51    29.0    39.0    12.0
   52    54.0    38.0    19.0
   53    55.0    57.0    22.0
   54    67.0    41.0    16.0
   55    10.0    70.0     7.0
   56     6.0    25.0    26.0
   57    65.0    27.0    14.0
   58    40.0    60.0    21.0
   59    70.0    64.0    24.0
   60    64.0     4.0    13.0
   61    36.0     6.0    15.0
   62    30.0    20.0    18.0
   63    20.0    30.0    11.0
   64    15.0     5.0    28.0
   65    50.0    70.0     9.0
   66    57.0    72.0    37.0
   67    45.0    42.0    30.0
   68    38.0    33.0    10.0
   69    50.0     4.0     8.0
   70    66.0     8.0    11.0
   71    59.0     5.0     3.0
   72    35.0    60.0     1.0
   73    27.0    24.0     6.0
   74    40.0    20.0    10.0
   75    40.0    37.0    20.0
Node - number of items - h - w for each item
    0   0
    1   3   19    3    8    3    7    2
    2   3    6    4   13    3   17    2
    3   2    5    6   13    2
    4   2    7    4    4    2
    5   2    8    4    6    4
    6   3   22    3    9    2    6    2
    7   2   14    3    6    3
    8   5    7    7   23    3   17    3    8    2    6    2
    9   4   11    6    5    6    4    4   22    2
   10   2    5   11   22    3
   11   4    8    6    6    5    7    4   11    3
   12   4   11    6    9    4   12    3   11    2
   13   2   10    4    5    3
   14   4    8   12    7    6   10    3    5    3
   15   5    7    7    6    6   10    5   12    4   18    3
   16   2    8    4    5    4
   17   1    4    4
   18   3    8   10    7    8   21    4
   19   2    6    5   12    3
   20   5    7   10    4   10    7    6   12    5    8    3
   21   5   21    4   17    4    5    4   16    3    6    2
   22   2   10    3    4    2
   23   2    7    3   21    2
   24   5    6    6   11    4    8    4    5    4   20    3
   25   1    9    3
   26   2    9    6    9    3
   27   2    8    9    7    4
   28   4    7    5   24    3   20    3   17    3
   29   5    7    8    6    7    9    4   22    3    7    3
   30   3    5   11   17    2   11    2
   31   3   22    4    6    4   16    2
   32   5    6    8   14    4   10    4   11    3    5    3
   33   2    4   10    5    8
   34   4    7   11    5    4    6    3    6    3
   35   2   11    5    5    4
   36   2   11    3    4    3
   37   5    6    9    5    9    6    6   10    5    6    4
   38   1    8    4
   39   3    8    4   11    3   18    2
   40   5    6    9    5    6    9    5    6    5   22    4
   41   2    6    9   12    3
   42   3    8    8   19    3   17    3
   43   4    4   10    5    8   13    3    9    3
   44   5    7   10    6    7    9    4   18    2    8    2
   45   5    6    7    6    7    6    4   18    2   14    2
   46   4    7    5    6    5    6    4    8    2
   47   3    5    8    7    5   11    3
   48   4    5    9    7    8   16    3    6    2
   49   4    5    6    5    4    5    4    4    3
   50   1    8    6
   51   1   19    3
   52   2    5    5   12    2
   53   4    6    6    4    6    5    5   12    4
   54   5    9    5   10    4    6    4   16    3    9    3
   55   4    4    9   12    5   17    3    6    3
   56   3    6   12    5    5   23    2
   57   1    5    4
   58   3    5    4   13    3    6    2
   59   5    4    7    5    5   21    4    5    4    9    3
   60   5    8    5   13    4    5    4    5    4    9    3
   61   3    7    9   14    3   14    2
   62   2    6    7    7    6
   63   3    4    4   20    3    7    3
   64   4    7    5    8    4   11    3   18    2
   65   1    8   11
   66   1    4    6
   67   5    6   11   24    4    6    4   15    3    5    3
   68   3    6    8    8    3   16    2
   69   4    4   11    7    9    6    8    9    2
   70   1    4    3
   71   5    6    7    7    6   20    4    7    3    4    3
   72   2    6    6    6    4
   73   5    8    4   13    3   10    3    6    3    8    2
   74   2    6    8    4    4
   75   4    6    9   10    5   10    4    5    2
